p cnf 529 1
529 0
w 1 0.67011
w 2 1 0
w 2 -1 1
w 3 2 1
w 3 -2 0
w 4 3 1
w 4 -3 0
w 5 4 0
w 5 -4 1
w 6 5 0
w 6 -5 1
w 7 6 1
w 7 -6 0
w 8 7 0
w 8 -7 1
w 9 8 0
w 9 -8 1
w 10 9 0
w 10 -9 1
w 11 10 1
w 11 -10 0
w 12 11 0
w 12 -11 1
w 13 12 1
w 13 -12 0
w 14 13 1
w 14 -13 0
w 15 14 0
w 15 -14 1
w 16 15 0
w 16 -15 1
w 17 16 0.746014
w 17 -16 0.861436
w 18 17 0.791488
w 18 -17 0.572461
w 19 18 1
w 19 -18 0
w 20 19 1
w 20 -19 0
w 21 20 0
w 21 -20 1
w 22 21 1
w 22 -21 0
w 23 22 1
w 23 -22 0
w 24 1 0
w 24 -1 1
w 25 24 2 0
w 25 24 -2 1
w 25 -24 2 0
w 25 -24 -2 0
w 26 25 3 1
w 26 25 -3 0
w 26 -25 3 1
w 26 -25 -3 0
w 27 26 4 0.625877
w 27 26 -4 0.622415
w 27 -26 4 0.814492
w 27 -26 -4 0.371892
w 28 27 5 0
w 28 27 -5 0
w 28 -27 5 0
w 28 -27 -5 1
w 29 28 6 0
w 29 28 -6 1
w 29 -28 6 1
w 29 -28 -6 1
w 30 29 7 0
w 30 29 -7 0
w 30 -29 7 1
w 30 -29 -7 0
w 31 30 8 1
w 31 30 -8 1
w 31 -30 8 0
w 31 -30 -8 1
w 32 31 9 0
w 32 31 -9 0
w 32 -31 9 0
w 32 -31 -9 1
w 33 32 10 1
w 33 32 -10 0
w 33 -32 10 0
w 33 -32 -10 0
w 34 33 11 0
w 34 33 -11 0
w 34 -33 11 0
w 34 -33 -11 1
w 35 34 12 1
w 35 34 -12 0
w 35 -34 12 1
w 35 -34 -12 1
w 36 35 13 0.253004
w 36 35 -13 0.710769
w 36 -35 13 0.153294
w 36 -35 -13 0.413968
w 37 36 14 0.265642
w 37 36 -14 0.659691
w 37 -36 14 0.246412
w 37 -36 -14 0.757884
w 38 37 15 1
w 38 37 -15 1
w 38 -37 15 1
w 38 -37 -15 0
w 39 38 16 1
w 39 38 -16 1
w 39 -38 16 1
w 39 -38 -16 0
w 40 39 17 0
w 40 39 -17 0
w 40 -39 17 1
w 40 -39 -17 0
w 41 40 18 0
w 41 40 -18 0
w 41 -40 18 0
w 41 -40 -18 1
w 42 41 19 0
w 42 41 -19 0
w 42 -41 19 0
w 42 -41 -19 1
w 43 42 20 1
w 43 42 -20 1
w 43 -42 20 1
w 43 -42 -20 0
w 44 43 21 0
w 44 43 -21 1
w 44 -43 21 1
w 44 -43 -21 1
w 45 44 22 1
w 45 44 -22 1
w 45 -44 22 1
w 45 -44 -22 0
w 46 45 23 0.560526
w 46 45 -23 0.919031
w 46 -45 23 0.57811
w 46 -45 -23 0.387655
w 47 24 0
w 47 -24 1
w 48 47 25 1
w 48 47 -25 0
w 48 -47 25 1
w 48 -47 -25 1
w 49 48 26 0.0411831
w 49 48 -26 0.709836
w 49 -48 26 0.0501213
w 49 -48 -26 0.14368
w 50 49 27 0
w 50 49 -27 0
w 50 -49 27 1
w 50 -49 -27 0
w 51 50 28 1
w 51 50 -28 0
w 51 -50 28 0
w 51 -50 -28 1
w 52 51 29 0.495176
w 52 51 -29 0.336847
w 52 -51 29 0.0269798
w 52 -51 -29 0.466038
w 53 52 30 0.946011
w 53 52 -30 0.0441481
w 53 -52 30 0.285028
w 53 -52 -30 0.0597959
w 54 53 31 0.439007
w 54 53 -31 0.68126
w 54 -53 31 0.0802156
w 54 -53 -31 0.181204
w 55 54 32 0.01852
w 55 54 -32 0.222387
w 55 -54 32 0.480099
w 55 -54 -32 0.0686413
w 56 55 33 1
w 56 55 -33 0
w 56 -55 33 1
w 56 -55 -33 1
w 57 56 34 1
w 57 56 -34 0
w 57 -56 34 1
w 57 -56 -34 1
w 58 57 35 0
w 58 57 -35 0
w 58 -57 35 0
w 58 -57 -35 1
w 59 58 36 0.940821
w 59 58 -36 0.749221
w 59 -58 36 0.808442
w 59 -58 -36 0.225849
w 60 59 37 0.648202
w 60 59 -37 0.664857
w 60 -59 37 0.490277
w 60 -59 -37 0.728418
w 61 60 38 0.260539
w 61 60 -38 0.746938
w 61 -60 38 0.0684478
w 61 -60 -38 0.740638
w 62 61 39 0.434515
w 62 61 -39 0.81705
w 62 -61 39 0.705849
w 62 -61 -39 0.293171
w 63 62 40 0
w 63 62 -40 1
w 63 -62 40 0
w 63 -62 -40 1
w 64 63 41 0
w 64 63 -41 1
w 64 -63 41 1
w 64 -63 -41 0
w 65 64 42 1
w 65 64 -42 1
w 65 -64 42 0
w 65 -64 -42 1
w 66 65 43 0
w 66 65 -43 1
w 66 -65 43 0
w 66 -65 -43 1
w 67 66 44 1
w 67 66 -44 0
w 67 -66 44 1
w 67 -66 -44 1
w 68 67 45 0
w 68 67 -45 1
w 68 -67 45 0
w 68 -67 -45 1
w 69 68 46 0.35803
w 69 68 -46 0.389882
w 69 -68 46 0.0820696
w 69 -68 -46 0.916393
w 70 47 0
w 70 -47 1
w 71 70 48 1
w 71 70 -48 0
w 71 -70 48 1
w 71 -70 -48 1
w 72 71 49 1
w 72 71 -49 0
w 72 -71 49 0
w 72 -71 -49 0
w 73 72 50 0
w 73 72 -50 1
w 73 -72 50 0
w 73 -72 -50 1
w 74 73 51 1
w 74 73 -51 0
w 74 -73 51 0
w 74 -73 -51 0
w 75 74 52 0.328474
w 75 74 -52 0.665576
w 75 -74 52 0.1611
w 75 -74 -52 0.718356
w 76 75 53 1
w 76 75 -53 0
w 76 -75 53 1
w 76 -75 -53 0
w 77 76 54 1
w 77 76 -54 0
w 77 -76 54 0
w 77 -76 -54 0
w 78 77 55 0
w 78 77 -55 1
w 78 -77 55 0
w 78 -77 -55 0
w 79 78 56 1
w 79 78 -56 0
w 79 -78 56 0
w 79 -78 -56 0
w 80 79 57 0.790249
w 80 79 -57 0.229312
w 80 -79 57 0.549673
w 80 -79 -57 0.673692
w 81 80 58 1
w 81 80 -58 1
w 81 -80 58 0
w 81 -80 -58 1
w 82 81 59 1
w 82 81 -59 0
w 82 -81 59 1
w 82 -81 -59 0
w 83 82 60 1
w 83 82 -60 0
w 83 -82 60 1
w 83 -82 -60 1
w 84 83 61 1
w 84 83 -61 0
w 84 -83 61 0
w 84 -83 -61 0
w 85 84 62 1
w 85 84 -62 0
w 85 -84 62 0
w 85 -84 -62 0
w 86 85 63 1
w 86 85 -63 0
w 86 -85 63 0
w 86 -85 -63 1
w 87 86 64 1
w 87 86 -64 1
w 87 -86 64 0
w 87 -86 -64 0
w 88 87 65 0.473129
w 88 87 -65 0.542595
w 88 -87 65 0.829066
w 88 -87 -65 0.00295559
w 89 88 66 0
w 89 88 -66 0
w 89 -88 66 0
w 89 -88 -66 1
w 90 89 67 0
w 90 89 -67 0
w 90 -89 67 0
w 90 -89 -67 1
w 91 90 68 0
w 91 90 -68 0
w 91 -90 68 1
w 91 -90 -68 1
w 92 91 69 0
w 92 91 -69 0
w 92 -91 69 1
w 92 -91 -69 0
w 93 70 0
w 93 -70 1
w 94 93 71 1
w 94 93 -71 0
w 94 -93 71 0
w 94 -93 -71 0
w 95 94 72 1
w 95 94 -72 0
w 95 -94 72 1
w 95 -94 -72 0
w 96 95 73 1
w 96 95 -73 1
w 96 -95 73 0
w 96 -95 -73 0
w 97 96 74 0.0261505
w 97 96 -74 0.791487
w 97 -96 74 0.0774481
w 97 -96 -74 0.0649367
w 98 97 75 1
w 98 97 -75 0
w 98 -97 75 0
w 98 -97 -75 0
w 99 98 76 0
w 99 98 -76 1
w 99 -98 76 1
w 99 -98 -76 1
w 100 99 77 0.622829
w 100 99 -77 0.097691
w 100 -99 77 0.966018
w 100 -99 -77 0.642163
w 101 100 78 1
w 101 100 -78 1
w 101 -100 78 1
w 101 -100 -78 0
w 102 101 79 1
w 102 101 -79 0
w 102 -101 79 0
w 102 -101 -79 1
w 103 102 80 1
w 103 102 -80 0
w 103 -102 80 0
w 103 -102 -80 1
w 104 103 81 0
w 104 103 -81 1
w 104 -103 81 1
w 104 -103 -81 0
w 105 104 82 0
w 105 104 -82 1
w 105 -104 82 1
w 105 -104 -82 1
w 106 105 83 0
w 106 105 -83 0
w 106 -105 83 1
w 106 -105 -83 1
w 107 106 84 1
w 107 106 -84 1
w 107 -106 84 1
w 107 -106 -84 0
w 108 107 85 1
w 108 107 -85 1
w 108 -107 85 1
w 108 -107 -85 0
w 109 108 86 0
w 109 108 -86 1
w 109 -108 86 0
w 109 -108 -86 0
w 110 109 87 0.453966
w 110 109 -87 0.799417
w 110 -109 87 0.70738
w 110 -109 -87 0.904907
w 111 110 88 1
w 111 110 -88 0
w 111 -110 88 0
w 111 -110 -88 0
w 112 111 89 1
w 112 111 -89 0
w 112 -111 89 1
w 112 -111 -89 1
w 113 112 90 1
w 113 112 -90 0
w 113 -112 90 1
w 113 -112 -90 0
w 114 113 91 0
w 114 113 -91 0
w 114 -113 91 0
w 114 -113 -91 1
w 115 114 92 0.571214
w 115 114 -92 0.527947
w 115 -114 92 0.76304
w 115 -114 -92 0.350783
w 116 93 0
w 116 -93 1
w 117 116 94 0.890335
w 117 116 -94 0.269824
w 117 -116 94 0.709656
w 117 -116 -94 0.616847
w 118 117 95 0
w 118 117 -95 1
w 118 -117 95 1
w 118 -117 -95 1
w 119 118 96 1
w 119 118 -96 0
w 119 -118 96 0
w 119 -118 -96 0
w 120 119 97 1
w 120 119 -97 0
w 120 -119 97 0
w 120 -119 -97 1
w 121 120 98 0
w 121 120 -98 0
w 121 -120 98 0
w 121 -120 -98 1
w 122 121 99 0
w 122 121 -99 0
w 122 -121 99 1
w 122 -121 -99 0
w 123 122 100 0
w 123 122 -100 1
w 123 -122 100 0
w 123 -122 -100 1
w 124 123 101 0
w 124 123 -101 1
w 124 -123 101 0
w 124 -123 -101 1
w 125 124 102 0
w 125 124 -102 1
w 125 -124 102 0
w 125 -124 -102 0
w 126 125 103 0
w 126 125 -103 1
w 126 -125 103 0
w 126 -125 -103 0
w 127 126 104 0.212554
w 127 126 -104 0.819435
w 127 -126 104 0.727505
w 127 -126 -104 0.439569
w 128 127 105 1
w 128 127 -105 1
w 128 -127 105 0
w 128 -127 -105 0
w 129 128 106 0.705089
w 129 128 -106 0.840901
w 129 -128 106 0.804448
w 129 -128 -106 0.0300567
w 130 129 107 0.0892095
w 130 129 -107 0.150027
w 130 -129 107 0.743226
w 130 -129 -107 0.595287
w 131 130 108 0
w 131 130 -108 1
w 131 -130 108 0
w 131 -130 -108 0
w 132 131 109 0
w 132 131 -109 1
w 132 -131 109 0
w 132 -131 -109 0
w 133 132 110 0
w 133 132 -110 0
w 133 -132 110 0
w 133 -132 -110 1
w 134 133 111 1
w 134 133 -111 0
w 134 -133 111 0
w 134 -133 -111 1
w 135 134 112 0
w 135 134 -112 1
w 135 -134 112 0
w 135 -134 -112 0
w 136 135 113 1
w 136 135 -113 0
w 136 -135 113 1
w 136 -135 -113 0
w 137 136 114 0.190925
w 137 136 -114 0.550262
w 137 -136 114 0.241637
w 137 -136 -114 0.480128
w 138 137 115 1
w 138 137 -115 1
w 138 -137 115 0
w 138 -137 -115 1
w 139 116 0
w 139 -116 1
w 140 139 117 0
w 140 139 -117 0
w 140 -139 117 1
w 140 -139 -117 0
w 141 140 118 0
w 141 140 -118 0
w 141 -140 118 1
w 141 -140 -118 1
w 142 141 119 1
w 142 141 -119 1
w 142 -141 119 0
w 142 -141 -119 0
w 143 142 120 0.101112
w 143 142 -120 0.0278333
w 143 -142 120 0.919551
w 143 -142 -120 0.970916
w 144 143 121 1
w 144 143 -121 0
w 144 -143 121 0
w 144 -143 -121 1
w 145 144 122 1
w 145 144 -122 0
w 145 -144 122 1
w 145 -144 -122 1
w 146 145 123 1
w 146 145 -123 0
w 146 -145 123 1
w 146 -145 -123 1
w 147 146 124 1
w 147 146 -124 1
w 147 -146 124 1
w 147 -146 -124 0
w 148 147 125 0
w 148 147 -125 0
w 148 -147 125 1
w 148 -147 -125 0
w 149 148 126 0.353764
w 149 148 -126 0.91816
w 149 -148 126 0.869723
w 149 -148 -126 0.324681
w 150 149 127 0
w 150 149 -127 0
w 150 -149 127 1
w 150 -149 -127 0
w 151 150 128 0.403281
w 151 150 -128 0.353787
w 151 -150 128 0.612898
w 151 -150 -128 0.158682
w 152 151 129 1
w 152 151 -129 0
w 152 -151 129 1
w 152 -151 -129 0
w 153 152 130 1
w 153 152 -130 1
w 153 -152 130 0
w 153 -152 -130 0
w 154 153 131 1
w 154 153 -131 1
w 154 -153 131 0
w 154 -153 -131 0
w 155 154 132 0
w 155 154 -132 1
w 155 -154 132 1
w 155 -154 -132 1
w 156 155 133 1
w 156 155 -133 0
w 156 -155 133 0
w 156 -155 -133 0
w 157 156 134 0
w 157 156 -134 1
w 157 -156 134 1
w 157 -156 -134 0
w 158 157 135 0
w 158 157 -135 0
w 158 -157 135 1
w 158 -157 -135 1
w 159 158 136 0.935707
w 159 158 -136 0.216749
w 159 -158 136 0.568382
w 159 -158 -136 0.0824375
w 160 159 137 0
w 160 159 -137 1
w 160 -159 137 0
w 160 -159 -137 0
w 161 160 138 0
w 161 160 -138 0
w 161 -160 138 1
w 161 -160 -138 0
w 162 139 0
w 162 -139 1
w 163 162 140 0
w 163 162 -140 1
w 163 -162 140 0
w 163 -162 -140 0
w 164 163 141 1
w 164 163 -141 0
w 164 -163 141 0
w 164 -163 -141 1
w 165 164 142 1
w 165 164 -142 1
w 165 -164 142 1
w 165 -164 -142 0
w 166 165 143 0
w 166 165 -143 1
w 166 -165 143 1
w 166 -165 -143 1
w 167 166 144 1
w 167 166 -144 0
w 167 -166 144 0
w 167 -166 -144 0
w 168 167 145 1
w 168 167 -145 0
w 168 -167 145 0
w 168 -167 -145 1
w 169 168 146 0
w 169 168 -146 0
w 169 -168 146 0
w 169 -168 -146 1
w 170 169 147 1
w 170 169 -147 0
w 170 -169 147 1
w 170 -169 -147 1
w 171 170 148 0
w 171 170 -148 1
w 171 -170 148 0
w 171 -170 -148 0
w 172 171 149 0
w 172 171 -149 0
w 172 -171 149 0
w 172 -171 -149 1
w 173 172 150 0.322193
w 173 172 -150 0.072018
w 173 -172 150 0.862469
w 173 -172 -150 0.0530754
w 174 173 151 0
w 174 173 -151 1
w 174 -173 151 1
w 174 -173 -151 0
w 175 174 152 1
w 175 174 -152 1
w 175 -174 152 0
w 175 -174 -152 1
w 176 175 153 0
w 176 175 -153 0
w 176 -175 153 0
w 176 -175 -153 1
w 177 176 154 1
w 177 176 -154 0
w 177 -176 154 1
w 177 -176 -154 1
w 178 177 155 0
w 178 177 -155 1
w 178 -177 155 0
w 178 -177 -155 0
w 179 178 156 0
w 179 178 -156 1
w 179 -178 156 0
w 179 -178 -156 1
w 180 179 157 1
w 180 179 -157 1
w 180 -179 157 1
w 180 -179 -157 0
w 181 180 158 0.281755
w 181 180 -158 0.277472
w 181 -180 158 0.95372
w 181 -180 -158 0.0219902
w 182 181 159 1
w 182 181 -159 0
w 182 -181 159 0
w 182 -181 -159 1
w 183 182 160 0
w 183 182 -160 0
w 183 -182 160 0
w 183 -182 -160 1
w 184 183 161 0
w 184 183 -161 1
w 184 -183 161 1
w 184 -183 -161 0
w 185 162 0
w 185 -162 1
w 186 185 163 0.772957
w 186 185 -163 0.458612
w 186 -185 163 0.112997
w 186 -185 -163 0.366157
w 187 186 164 0.263767
w 187 186 -164 0.0333465
w 187 -186 164 0.00317428
w 187 -186 -164 0.0619485
w 188 187 165 0
w 188 187 -165 0
w 188 -187 165 1
w 188 -187 -165 0
w 189 188 166 1
w 189 188 -166 0
w 189 -188 166 0
w 189 -188 -166 1
w 190 189 167 0
w 190 189 -167 1
w 190 -189 167 0
w 190 -189 -167 0
w 191 190 168 0.196012
w 191 190 -168 0.555251
w 191 -190 168 0.457987
w 191 -190 -168 0.428845
w 192 191 169 0.356449
w 192 191 -169 0.201801
w 192 -191 169 0.307112
w 192 -191 -169 0.469447
w 193 192 170 0
w 193 192 -170 0
w 193 -192 170 1
w 193 -192 -170 1
w 194 193 171 0.916406
w 194 193 -171 0.373822
w 194 -193 171 0.81083
w 194 -193 -171 0.253498
w 195 194 172 1
w 195 194 -172 0
w 195 -194 172 1
w 195 -194 -172 0
w 196 195 173 0
w 196 195 -173 0
w 196 -195 173 1
w 196 -195 -173 1
w 197 196 174 1
w 197 196 -174 1
w 197 -196 174 0
w 197 -196 -174 1
w 198 197 175 1
w 198 197 -175 0
w 198 -197 175 1
w 198 -197 -175 0
w 199 198 176 1
w 199 198 -176 0
w 199 -198 176 1
w 199 -198 -176 0
w 200 199 177 1
w 200 199 -177 1
w 200 -199 177 1
w 200 -199 -177 0
w 201 200 178 1
w 201 200 -178 0
w 201 -200 178 0
w 201 -200 -178 1
w 202 201 179 0.661148
w 202 201 -179 0.870643
w 202 -201 179 0.362883
w 202 -201 -179 0.34609
w 203 202 180 1
w 203 202 -180 0
w 203 -202 180 1
w 203 -202 -180 0
w 204 203 181 0
w 204 203 -181 1
w 204 -203 181 1
w 204 -203 -181 1
w 205 204 182 1
w 205 204 -182 1
w 205 -204 182 1
w 205 -204 -182 0
w 206 205 183 1
w 206 205 -183 1
w 206 -205 183 1
w 206 -205 -183 0
w 207 206 184 0
w 207 206 -184 1
w 207 -206 184 1
w 207 -206 -184 1
w 208 185 0
w 208 -185 1
w 209 208 186 0.919092
w 209 208 -186 0.556206
w 209 -208 186 0.00725274
w 209 -208 -186 0.640201
w 210 209 187 0.901539
w 210 209 -187 0.177524
w 210 -209 187 0.320093
w 210 -209 -187 0.433774
w 211 210 188 0.368536
w 211 210 -188 0.911068
w 211 -210 188 0.239604
w 211 -210 -188 0.496536
w 212 211 189 1
w 212 211 -189 1
w 212 -211 189 1
w 212 -211 -189 0
w 213 212 190 0
w 213 212 -190 1
w 213 -212 190 1
w 213 -212 -190 0
w 214 213 191 0.608394
w 214 213 -191 0.14729
w 214 -213 191 0.815887
w 214 -213 -191 0.164604
w 215 214 192 0
w 215 214 -192 1
w 215 -214 192 1
w 215 -214 -192 1
w 216 215 193 0
w 216 215 -193 1
w 216 -215 193 0
w 216 -215 -193 0
w 217 216 194 0.385492
w 217 216 -194 0.971934
w 217 -216 194 0.028534
w 217 -216 -194 0.882028
w 218 217 195 1
w 218 217 -195 1
w 218 -217 195 0
w 218 -217 -195 1
w 219 218 196 0.666046
w 219 218 -196 0.604616
w 219 -218 196 0.867395
w 219 -218 -196 0.264367
w 220 219 197 0
w 220 219 -197 0
w 220 -219 197 0
w 220 -219 -197 1
w 221 220 198 0.92292
w 221 220 -198 0.724089
w 221 -220 198 0.682676
w 221 -220 -198 0.648474
w 222 221 199 0
w 222 221 -199 0
w 222 -221 199 1
w 222 -221 -199 0
w 223 222 200 1
w 223 222 -200 0
w 223 -222 200 1
w 223 -222 -200 0
w 224 223 201 0
w 224 223 -201 1
w 224 -223 201 0
w 224 -223 -201 1
w 225 224 202 0
w 225 224 -202 0
w 225 -224 202 1
w 225 -224 -202 1
w 226 225 203 0
w 226 225 -203 0
w 226 -225 203 1
w 226 -225 -203 0
w 227 226 204 1
w 227 226 -204 1
w 227 -226 204 0
w 227 -226 -204 0
w 228 227 205 0.906057
w 228 227 -205 0.33645
w 228 -227 205 0.0678313
w 228 -227 -205 0.255463
w 229 228 206 0
w 229 228 -206 1
w 229 -228 206 1
w 229 -228 -206 0
w 230 229 207 1
w 230 229 -207 0
w 230 -229 207 1
w 230 -229 -207 1
w 231 208 0
w 231 -208 1
w 232 231 209 0.408603
w 232 231 -209 0.373521
w 232 -231 209 0.398595
w 232 -231 -209 0.502117
w 233 232 210 1
w 233 232 -210 0
w 233 -232 210 0
w 233 -232 -210 0
w 234 233 211 0
w 234 233 -211 0
w 234 -233 211 0
w 234 -233 -211 1
w 235 234 212 0
w 235 234 -212 1
w 235 -234 212 1
w 235 -234 -212 1
w 236 235 213 0
w 236 235 -213 0
w 236 -235 213 0
w 236 -235 -213 1
w 237 236 214 0
w 237 236 -214 0
w 237 -236 214 1
w 237 -236 -214 0
w 238 237 215 0
w 238 237 -215 1
w 238 -237 215 0
w 238 -237 -215 1
w 239 238 216 0
w 239 238 -216 0
w 239 -238 216 0
w 239 -238 -216 1
w 240 239 217 0.3977
w 240 239 -217 0.614081
w 240 -239 217 0.165202
w 240 -239 -217 0.944401
w 241 240 218 0
w 241 240 -218 1
w 241 -240 218 1
w 241 -240 -218 1
w 242 241 219 0
w 242 241 -219 1
w 242 -241 219 1
w 242 -241 -219 1
w 243 242 220 1
w 243 242 -220 1
w 243 -242 220 0
w 243 -242 -220 0
w 244 243 221 1
w 244 243 -221 0
w 244 -243 221 1
w 244 -243 -221 1
w 245 244 222 0
w 245 244 -222 1
w 245 -244 222 0
w 245 -244 -222 1
w 246 245 223 1
w 246 245 -223 0
w 246 -245 223 0
w 246 -245 -223 1
w 247 246 224 0
w 247 246 -224 0
w 247 -246 224 0
w 247 -246 -224 1
w 248 247 225 0
w 248 247 -225 0
w 248 -247 225 1
w 248 -247 -225 1
w 249 248 226 1
w 249 248 -226 0
w 249 -248 226 0
w 249 -248 -226 1
w 250 249 227 0
w 250 249 -227 1
w 250 -249 227 0
w 250 -249 -227 0
w 251 250 228 0.389867
w 251 250 -228 0.409602
w 251 -250 228 0.511489
w 251 -250 -228 0.59117
w 252 251 229 0.0414605
w 252 251 -229 0.190173
w 252 -251 229 0.148508
w 252 -251 -229 0.736634
w 253 252 230 0
w 253 252 -230 0
w 253 -252 230 1
w 253 -252 -230 1
w 254 231 1
w 254 -231 0
w 255 254 232 0
w 255 254 -232 1
w 255 -254 232 0
w 255 -254 -232 1
w 256 255 233 0.915496
w 256 255 -233 0.365936
w 256 -255 233 0.581673
w 256 -255 -233 0.221907
w 257 256 234 1
w 257 256 -234 1
w 257 -256 234 0
w 257 -256 -234 1
w 258 257 235 0
w 258 257 -235 1
w 258 -257 235 1
w 258 -257 -235 1
w 259 258 236 0.224946
w 259 258 -236 0.52124
w 259 -258 236 0.729868
w 259 -258 -236 0.958523
w 260 259 237 0
w 260 259 -237 1
w 260 -259 237 0
w 260 -259 -237 1
w 261 260 238 1
w 261 260 -238 1
w 261 -260 238 0
w 261 -260 -238 1
w 262 261 239 0.766973
w 262 261 -239 0.099194
w 262 -261 239 0.166892
w 262 -261 -239 0.348646
w 263 262 240 0
w 263 262 -240 1
w 263 -262 240 0
w 263 -262 -240 0
w 264 263 241 0
w 264 263 -241 0
w 264 -263 241 0
w 264 -263 -241 1
w 265 264 242 1
w 265 264 -242 0
w 265 -264 242 1
w 265 -264 -242 1
w 266 265 243 0
w 266 265 -243 1
w 266 -265 243 1
w 266 -265 -243 0
w 267 266 244 0
w 267 266 -244 1
w 267 -266 244 0
w 267 -266 -244 0
w 268 267 245 0
w 268 267 -245 1
w 268 -267 245 0
w 268 -267 -245 0
w 269 268 246 0
w 269 268 -246 0
w 269 -268 246 1
w 269 -268 -246 0
w 270 269 247 0
w 270 269 -247 0
w 270 -269 247 0
w 270 -269 -247 1
w 271 270 248 1
w 271 270 -248 1
w 271 -270 248 1
w 271 -270 -248 0
w 272 271 249 1
w 272 271 -249 1
w 272 -271 249 1
w 272 -271 -249 0
w 273 272 250 1
w 273 272 -250 1
w 273 -272 250 0
w 273 -272 -250 0
w 274 273 251 0.00206111
w 274 273 -251 0.83968
w 274 -273 251 0.499805
w 274 -273 -251 0.990081
w 275 274 252 0.524218
w 275 274 -252 0.359072
w 275 -274 252 0.865878
w 275 -274 -252 0.923467
w 276 275 253 1
w 276 275 -253 1
w 276 -275 253 0
w 276 -275 -253 0
w 277 254 0
w 277 -254 1
w 278 277 255 0
w 278 277 -255 1
w 278 -277 255 0
w 278 -277 -255 0
w 279 278 256 1
w 279 278 -256 1
w 279 -278 256 0
w 279 -278 -256 1
w 280 279 257 0
w 280 279 -257 1
w 280 -279 257 0
w 280 -279 -257 0
w 281 280 258 1
w 281 280 -258 0
w 281 -280 258 1
w 281 -280 -258 0
w 282 281 259 0
w 282 281 -259 1
w 282 -281 259 1
w 282 -281 -259 0
w 283 282 260 1
w 283 282 -260 1
w 283 -282 260 1
w 283 -282 -260 0
w 284 283 261 1
w 284 283 -261 0
w 284 -283 261 0
w 284 -283 -261 0
w 285 284 262 0.10793
w 285 284 -262 0.176387
w 285 -284 262 0.353976
w 285 -284 -262 0.284116
w 286 285 263 0.96152
w 286 285 -263 0.641235
w 286 -285 263 0.736124
w 286 -285 -263 0.365557
w 287 286 264 0
w 287 286 -264 1
w 287 -286 264 0
w 287 -286 -264 0
w 288 287 265 0
w 288 287 -265 1
w 288 -287 265 1
w 288 -287 -265 1
w 289 288 266 0
w 289 288 -266 0
w 289 -288 266 1
w 289 -288 -266 0
w 290 289 267 0.121388
w 290 289 -267 0.312241
w 290 -289 267 0.280562
w 290 -289 -267 0.213895
w 291 290 268 0.21937
w 291 290 -268 0.321825
w 291 -290 268 0.101315
w 291 -290 -268 0.573346
w 292 291 269 0
w 292 291 -269 1
w 292 -291 269 1
w 292 -291 -269 1
w 293 292 270 0.247591
w 293 292 -270 0.149367
w 293 -292 270 0.169821
w 293 -292 -270 0.597267
w 294 293 271 1
w 294 293 -271 0
w 294 -293 271 0
w 294 -293 -271 0
w 295 294 272 1
w 295 294 -272 0
w 295 -294 272 1
w 295 -294 -272 0
w 296 295 273 0
w 296 295 -273 0
w 296 -295 273 0
w 296 -295 -273 1
w 297 296 274 1
w 297 296 -274 1
w 297 -296 274 1
w 297 -296 -274 0
w 298 297 275 0.267255
w 298 297 -275 0.0426114
w 298 -297 275 0.403888
w 298 -297 -275 0.514431
w 299 298 276 0.304311
w 299 298 -276 0.762022
w 299 -298 276 0.927898
w 299 -298 -276 0.474132
w 300 277 1
w 300 -277 0
w 301 300 278 1
w 301 300 -278 0
w 301 -300 278 0
w 301 -300 -278 0
w 302 301 279 0
w 302 301 -279 0
w 302 -301 279 1
w 302 -301 -279 0
w 303 302 280 0
w 303 302 -280 0
w 303 -302 280 0
w 303 -302 -280 1
w 304 303 281 1
w 304 303 -281 0
w 304 -303 281 0
w 304 -303 -281 0
w 305 304 282 0.463445
w 305 304 -282 0.787748
w 305 -304 282 0.270528
w 305 -304 -282 0.241976
w 306 305 283 1
w 306 305 -283 0
w 306 -305 283 0
w 306 -305 -283 1
w 307 306 284 0
w 307 306 -284 1
w 307 -306 284 0
w 307 -306 -284 0
w 308 307 285 0
w 308 307 -285 1
w 308 -307 285 0
w 308 -307 -285 0
w 309 308 286 0
w 309 308 -286 0
w 309 -308 286 1
w 309 -308 -286 1
w 310 309 287 0
w 310 309 -287 0
w 310 -309 287 0
w 310 -309 -287 1
w 311 310 288 1
w 311 310 -288 0
w 311 -310 288 0
w 311 -310 -288 1
w 312 311 289 1
w 312 311 -289 0
w 312 -311 289 1
w 312 -311 -289 1
w 313 312 290 0.324856
w 313 312 -290 0.604207
w 313 -312 290 0.0694464
w 313 -312 -290 0.267596
w 314 313 291 0.950337
w 314 313 -291 0.557447
w 314 -313 291 0.567815
w 314 -313 -291 0.25117
w 315 314 292 0.71888
w 315 314 -292 0.988519
w 315 -314 292 0.642022
w 315 -314 -292 0.697473
w 316 315 293 1
w 316 315 -293 1
w 316 -315 293 1
w 316 -315 -293 0
w 317 316 294 0
w 317 316 -294 0
w 317 -316 294 1
w 317 -316 -294 1
w 318 317 295 1
w 318 317 -295 0
w 318 -317 295 1
w 318 -317 -295 0
w 319 318 296 0.0287113
w 319 318 -296 0.652426
w 319 -318 296 0.558918
w 319 -318 -296 0.0981577
w 320 319 297 0.463706
w 320 319 -297 0.0484947
w 320 -319 297 0.477468
w 320 -319 -297 0.0315206
w 321 320 298 0
w 321 320 -298 0
w 321 -320 298 1
w 321 -320 -298 1
w 322 321 299 0
w 322 321 -299 0
w 322 -321 299 0
w 322 -321 -299 1
w 323 300 1
w 323 -300 0
w 324 323 301 0
w 324 323 -301 1
w 324 -323 301 0
w 324 -323 -301 0
w 325 324 302 0
w 325 324 -302 1
w 325 -324 302 0
w 325 -324 -302 0
w 326 325 303 0
w 326 325 -303 1
w 326 -325 303 1
w 326 -325 -303 0
w 327 326 304 1
w 327 326 -304 1
w 327 -326 304 1
w 327 -326 -304 0
w 328 327 305 0.2476
w 328 327 -305 0.0532203
w 328 -327 305 0.383083
w 328 -327 -305 0.165972
w 329 328 306 1
w 329 328 -306 0
w 329 -328 306 1
w 329 -328 -306 0
w 330 329 307 0
w 330 329 -307 0
w 330 -329 307 1
w 330 -329 -307 0
w 331 330 308 1
w 331 330 -308 0
w 331 -330 308 1
w 331 -330 -308 0
w 332 331 309 1
w 332 331 -309 0
w 332 -331 309 1
w 332 -331 -309 1
w 333 332 310 0.600282
w 333 332 -310 0.325355
w 333 -332 310 0.467146
w 333 -332 -310 0.738239
w 334 333 311 0.45816
w 334 333 -311 0.98584
w 334 -333 311 0.983922
w 334 -333 -311 0.841243
w 335 334 312 0
w 335 334 -312 1
w 335 -334 312 1
w 335 -334 -312 1
w 336 335 313 0
w 336 335 -313 1
w 336 -335 313 0
w 336 -335 -313 1
w 337 336 314 1
w 337 336 -314 1
w 337 -336 314 1
w 337 -336 -314 0
w 338 337 315 1
w 338 337 -315 0
w 338 -337 315 1
w 338 -337 -315 0
w 339 338 316 0.41845
w 339 338 -316 0.443475
w 339 -338 316 0.200453
w 339 -338 -316 0.885596
w 340 339 317 0
w 340 339 -317 0
w 340 -339 317 1
w 340 -339 -317 1
w 341 340 318 0
w 341 340 -318 1
w 341 -340 318 1
w 341 -340 -318 1
w 342 341 319 0
w 342 341 -319 1
w 342 -341 319 0
w 342 -341 -319 0
w 343 342 320 0
w 343 342 -320 1
w 343 -342 320 1
w 343 -342 -320 1
w 344 343 321 0.0451865
w 344 343 -321 0.751619
w 344 -343 321 0.401912
w 344 -343 -321 0.699319
w 345 344 322 1
w 345 344 -322 1
w 345 -344 322 0
w 345 -344 -322 1
w 346 323 0
w 346 -323 1
w 347 346 324 1
w 347 346 -324 1
w 347 -346 324 0
w 347 -346 -324 1
w 348 347 325 0
w 348 347 -325 0
w 348 -347 325 0
w 348 -347 -325 1
w 349 348 326 0.550913
w 349 348 -326 0.521127
w 349 -348 326 0.527772
w 349 -348 -326 0.0166191
w 350 349 327 1
w 350 349 -327 1
w 350 -349 327 0
w 350 -349 -327 1
w 351 350 328 0.166424
w 351 350 -328 0.51333
w 351 -350 328 0.36814
w 351 -350 -328 0.443434
w 352 351 329 0
w 352 351 -329 0
w 352 -351 329 1
w 352 -351 -329 0
w 353 352 330 1
w 353 352 -330 0
w 353 -352 330 0
w 353 -352 -330 0
w 354 353 331 0
w 354 353 -331 1
w 354 -353 331 0
w 354 -353 -331 1
w 355 354 332 1
w 355 354 -332 0
w 355 -354 332 1
w 355 -354 -332 1
w 356 355 333 0
w 356 355 -333 1
w 356 -355 333 1
w 356 -355 -333 1
w 357 356 334 0
w 357 356 -334 0
w 357 -356 334 0
w 357 -356 -334 1
w 358 357 335 1
w 358 357 -335 1
w 358 -357 335 0
w 358 -357 -335 1
w 359 358 336 1
w 359 358 -336 1
w 359 -358 336 0
w 359 -358 -336 0
w 360 359 337 0.360953
w 360 359 -337 0.254503
w 360 -359 337 0.290769
w 360 -359 -337 0.673703
w 361 360 338 0
w 361 360 -338 0
w 361 -360 338 1
w 361 -360 -338 0
w 362 361 339 0.773491
w 362 361 -339 0.563714
w 362 -361 339 0.120931
w 362 -361 -339 0.266498
w 363 362 340 1
w 363 362 -340 1
w 363 -362 340 0
w 363 -362 -340 0
w 364 363 341 0.143165
w 364 363 -341 0.344706
w 364 -363 341 0.182176
w 364 -363 -341 0.356407
w 365 364 342 0
w 365 364 -342 0
w 365 -364 342 0
w 365 -364 -342 1
w 366 365 343 1
w 366 365 -343 0
w 366 -365 343 0
w 366 -365 -343 0
w 367 366 344 0
w 367 366 -344 1
w 367 -366 344 0
w 367 -366 -344 0
w 368 367 345 0.960349
w 368 367 -345 0.16844
w 368 -367 345 0.141336
w 368 -367 -345 0.336312
w 369 346 0.414173
w 369 -346 0.892662
w 370 369 347 1
w 370 369 -347 1
w 370 -369 347 0
w 370 -369 -347 1
w 371 370 348 1
w 371 370 -348 1
w 371 -370 348 0
w 371 -370 -348 1
w 372 371 349 1
w 372 371 -349 0
w 372 -371 349 0
w 372 -371 -349 1
w 373 372 350 0
w 373 372 -350 1
w 373 -372 350 0
w 373 -372 -350 1
w 374 373 351 0
w 374 373 -351 0
w 374 -373 351 1
w 374 -373 -351 1
w 375 374 352 1
w 375 374 -352 1
w 375 -374 352 1
w 375 -374 -352 0
w 376 375 353 0
w 376 375 -353 1
w 376 -375 353 1
w 376 -375 -353 0
w 377 376 354 1
w 377 376 -354 0
w 377 -376 354 0
w 377 -376 -354 1
w 378 377 355 0
w 378 377 -355 0
w 378 -377 355 1
w 378 -377 -355 0
w 379 378 356 1
w 379 378 -356 1
w 379 -378 356 0
w 379 -378 -356 1
w 380 379 357 1
w 380 379 -357 0
w 380 -379 357 0
w 380 -379 -357 0
w 381 380 358 0
w 381 380 -358 0
w 381 -380 358 1
w 381 -380 -358 0
w 382 381 359 0
w 382 381 -359 1
w 382 -381 359 1
w 382 -381 -359 1
w 383 382 360 1
w 383 382 -360 1
w 383 -382 360 0
w 383 -382 -360 1
w 384 383 361 1
w 384 383 -361 0
w 384 -383 361 0
w 384 -383 -361 0
w 385 384 362 1
w 385 384 -362 1
w 385 -384 362 0
w 385 -384 -362 1
w 386 385 363 0.808028
w 386 385 -363 0.912581
w 386 -385 363 0.0371682
w 386 -385 -363 0.39916
w 387 386 364 0.497452
w 387 386 -364 0.760144
w 387 -386 364 0.685396
w 387 -386 -364 0.124968
w 388 387 365 1
w 388 387 -365 1
w 388 -387 365 1
w 388 -387 -365 0
w 389 388 366 1
w 389 388 -366 0
w 389 -388 366 0
w 389 -388 -366 0
w 390 389 367 0.454277
w 390 389 -367 0.56259
w 390 -389 367 0.444386
w 390 -389 -367 0.939052
w 391 390 368 0.927144
w 391 390 -368 0.169791
w 391 -390 368 0.501052
w 391 -390 -368 0.152518
w 392 369 1
w 392 -369 0
w 393 392 370 0.497433
w 393 392 -370 0.389676
w 393 -392 370 0.359707
w 393 -392 -370 0.362068
w 394 393 371 0.119851
w 394 393 -371 0.0474636
w 394 -393 371 0.0120953
w 394 -393 -371 0.280578
w 395 394 372 0
w 395 394 -372 0
w 395 -394 372 1
w 395 -394 -372 0
w 396 395 373 1
w 396 395 -373 1
w 396 -395 373 0
w 396 -395 -373 1
w 397 396 374 0
w 397 396 -374 0
w 397 -396 374 0
w 397 -396 -374 1
w 398 397 375 0
w 398 397 -375 0
w 398 -397 375 0
w 398 -397 -375 1
w 399 398 376 1
w 399 398 -376 0
w 399 -398 376 1
w 399 -398 -376 1
w 400 399 377 0.782445
w 400 399 -377 0.26348
w 400 -399 377 0.0849693
w 400 -399 -377 0.529218
w 401 400 378 0
w 401 400 -378 1
w 401 -400 378 0
w 401 -400 -378 1
w 402 401 379 1
w 402 401 -379 0
w 402 -401 379 1
w 402 -401 -379 1
w 403 402 380 0
w 403 402 -380 0
w 403 -402 380 1
w 403 -402 -380 1
w 404 403 381 0.954342
w 404 403 -381 0.31844
w 404 -403 381 0.77642
w 404 -403 -381 0.928924
w 405 404 382 1
w 405 404 -382 0
w 405 -404 382 0
w 405 -404 -382 0
w 406 405 383 1
w 406 405 -383 0
w 406 -405 383 0
w 406 -405 -383 1
w 407 406 384 0
w 407 406 -384 1
w 407 -406 384 1
w 407 -406 -384 0
w 408 407 385 1
w 408 407 -385 1
w 408 -407 385 0
w 408 -407 -385 1
w 409 408 386 0
w 409 408 -386 1
w 409 -408 386 0
w 409 -408 -386 1
w 410 409 387 0
w 410 409 -387 1
w 410 -409 387 1
w 410 -409 -387 0
w 411 410 388 0
w 411 410 -388 1
w 411 -410 388 1
w 411 -410 -388 0
w 412 411 389 1
w 412 411 -389 0
w 412 -411 389 0
w 412 -411 -389 1
w 413 412 390 0
w 413 412 -390 1
w 413 -412 390 1
w 413 -412 -390 1
w 414 413 391 0.21774
w 414 413 -391 0.98801
w 414 -413 391 0.769358
w 414 -413 -391 0.328982
w 415 392 0.185863
w 415 -392 0.65147
w 416 415 393 1
w 416 415 -393 1
w 416 -415 393 0
w 416 -415 -393 0
w 417 416 394 0.282867
w 417 416 -394 0.844608
w 417 -416 394 0.453343
w 417 -416 -394 0.901357
w 418 417 395 1
w 418 417 -395 1
w 418 -417 395 1
w 418 -417 -395 0
w 419 418 396 0.84052
w 419 418 -396 0.844128
w 419 -418 396 0.22186
w 419 -418 -396 0.441077
w 420 419 397 1
w 420 419 -397 0
w 420 -419 397 1
w 420 -419 -397 1
w 421 420 398 0.678795
w 421 420 -398 0.862352
w 421 -420 398 0.862864
w 421 -420 -398 0.864658
w 422 421 399 1
w 422 421 -399 0
w 422 -421 399 0
w 422 -421 -399 1
w 423 422 400 1
w 423 422 -400 1
w 423 -422 400 0
w 423 -422 -400 1
w 424 423 401 0
w 424 423 -401 0
w 424 -423 401 1
w 424 -423 -401 0
w 425 424 402 0
w 425 424 -402 1
w 425 -424 402 1
w 425 -424 -402 0
w 426 425 403 0
w 426 425 -403 0
w 426 -425 403 1
w 426 -425 -403 1
w 427 426 404 0.319244
w 427 426 -404 0.633039
w 427 -426 404 0.71266
w 427 -426 -404 0.182108
w 428 427 405 1
w 428 427 -405 0
w 428 -427 405 1
w 428 -427 -405 1
w 429 428 406 1
w 429 428 -406 0
w 429 -428 406 1
w 429 -428 -406 0
w 430 429 407 0.627109
w 430 429 -407 0.615675
w 430 -429 407 0.44386
w 430 -429 -407 0.480385
w 431 430 408 0.577429
w 431 430 -408 0.259834
w 431 -430 408 0.849059
w 431 -430 -408 0.555125
w 432 431 409 1
w 432 431 -409 0
w 432 -431 409 0
w 432 -431 -409 0
w 433 432 410 1
w 433 432 -410 1
w 433 -432 410 0
w 433 -432 -410 1
w 434 433 411 0
w 434 433 -411 1
w 434 -433 411 0
w 434 -433 -411 0
w 435 434 412 0
w 435 434 -412 0
w 435 -434 412 1
w 435 -434 -412 0
w 436 435 413 0
w 436 435 -413 0
w 436 -435 413 1
w 436 -435 -413 0
w 437 436 414 1
w 437 436 -414 0
w 437 -436 414 1
w 437 -436 -414 0
w 438 415 1
w 438 -415 0
w 439 438 416 0
w 439 438 -416 1
w 439 -438 416 0
w 439 -438 -416 1
w 440 439 417 1
w 440 439 -417 1
w 440 -439 417 1
w 440 -439 -417 0
w 441 440 418 1
w 441 440 -418 0
w 441 -440 418 0
w 441 -440 -418 0
w 442 441 419 0.970335
w 442 441 -419 0.989839
w 442 -441 419 0.987753
w 442 -441 -419 0.665093
w 443 442 420 0
w 443 442 -420 0
w 443 -442 420 0
w 443 -442 -420 1
w 444 443 421 1
w 444 443 -421 0
w 444 -443 421 1
w 444 -443 -421 0
w 445 444 422 0.245537
w 445 444 -422 0.789365
w 445 -444 422 0.768988
w 445 -444 -422 0.948132
w 446 445 423 0
w 446 445 -423 1
w 446 -445 423 0
w 446 -445 -423 1
w 447 446 424 1
w 447 446 -424 0
w 447 -446 424 1
w 447 -446 -424 0
w 448 447 425 0
w 448 447 -425 1
w 448 -447 425 0
w 448 -447 -425 0
w 449 448 426 0
w 449 448 -426 1
w 449 -448 426 1
w 449 -448 -426 1
w 450 449 427 0.721613
w 450 449 -427 0.119935
w 450 -449 427 0.350334
w 450 -449 -427 0.692946
w 451 450 428 1
w 451 450 -428 0
w 451 -450 428 1
w 451 -450 -428 0
w 452 451 429 0.538994
w 452 451 -429 0.844513
w 452 -451 429 0.678393
w 452 -451 -429 0.150514
w 453 452 430 1
w 453 452 -430 0
w 453 -452 430 1
w 453 -452 -430 1
w 454 453 431 0
w 454 453 -431 1
w 454 -453 431 1
w 454 -453 -431 0
w 455 454 432 1
w 455 454 -432 1
w 455 -454 432 0
w 455 -454 -432 0
w 456 455 433 0.0527247
w 456 455 -433 0.904548
w 456 -455 433 0.0184272
w 456 -455 -433 0.403059
w 457 456 434 0
w 457 456 -434 1
w 457 -456 434 0
w 457 -456 -434 1
w 458 457 435 1
w 458 457 -435 0
w 458 -457 435 0
w 458 -457 -435 1
w 459 458 436 0.928047
w 459 458 -436 0.782336
w 459 -458 436 0.0473088
w 459 -458 -436 0.0467142
w 460 459 437 0
w 460 459 -437 1
w 460 -459 437 0
w 460 -459 -437 1
w 461 438 0
w 461 -438 1
w 462 461 439 0
w 462 461 -439 0
w 462 -461 439 1
w 462 -461 -439 0
w 463 462 440 0
w 463 462 -440 0
w 463 -462 440 1
w 463 -462 -440 0
w 464 463 441 0.359355
w 464 463 -441 0.324472
w 464 -463 441 0.0273745
w 464 -463 -441 0.975879
w 465 464 442 0
w 465 464 -442 0
w 465 -464 442 1
w 465 -464 -442 1
w 466 465 443 1
w 466 465 -443 1
w 466 -465 443 0
w 466 -465 -443 1
w 467 466 444 0.310622
w 467 466 -444 0.573081
w 467 -466 444 0.185248
w 467 -466 -444 0.785206
w 468 467 445 1
w 468 467 -445 1
w 468 -467 445 0
w 468 -467 -445 0
w 469 468 446 1
w 469 468 -446 0
w 469 -468 446 0
w 469 -468 -446 1
w 470 469 447 1
w 470 469 -447 1
w 470 -469 447 0
w 470 -469 -447 0
w 471 470 448 0
w 471 470 -448 0
w 471 -470 448 1
w 471 -470 -448 1
w 472 471 449 1
w 472 471 -449 0
w 472 -471 449 1
w 472 -471 -449 1
w 473 472 450 0.0172191
w 473 472 -450 0.822709
w 473 -472 450 0.400032
w 473 -472 -450 0.202468
w 474 473 451 0
w 474 473 -451 1
w 474 -473 451 1
w 474 -473 -451 0
w 475 474 452 1
w 475 474 -452 0
w 475 -474 452 0
w 475 -474 -452 0
w 476 475 453 1
w 476 475 -453 1
w 476 -475 453 0
w 476 -475 -453 1
w 477 476 454 0
w 477 476 -454 1
w 477 -476 454 0
w 477 -476 -454 1
w 478 477 455 0
w 478 477 -455 0
w 478 -477 455 0
w 478 -477 -455 1
w 479 478 456 0
w 479 478 -456 1
w 479 -478 456 1
w 479 -478 -456 1
w 480 479 457 1
w 480 479 -457 1
w 480 -479 457 1
w 480 -479 -457 0
w 481 480 458 0
w 481 480 -458 0
w 481 -480 458 1
w 481 -480 -458 0
w 482 481 459 0.0237532
w 482 481 -459 0.278422
w 482 -481 459 0.328716
w 482 -481 -459 0.290312
w 483 482 460 1
w 483 482 -460 0
w 483 -482 460 1
w 483 -482 -460 1
w 484 461 1
w 484 -461 0
w 485 484 462 0
w 485 484 -462 1
w 485 -484 462 0
w 485 -484 -462 1
w 486 485 463 1
w 486 485 -463 0
w 486 -485 463 1
w 486 -485 -463 0
w 487 486 464 1
w 487 486 -464 0
w 487 -486 464 0
w 487 -486 -464 0
w 488 487 465 0.437097
w 488 487 -465 0.0550838
w 488 -487 465 0.960105
w 488 -487 -465 0.715519
w 489 488 466 0
w 489 488 -466 1
w 489 -488 466 0
w 489 -488 -466 0
w 490 489 467 0.983757
w 490 489 -467 0.179837
w 490 -489 467 0.068526
w 490 -489 -467 0.00576716
w 491 490 468 0
w 491 490 -468 1
w 491 -490 468 1
w 491 -490 -468 1
w 492 491 469 0
w 492 491 -469 0
w 492 -491 469 1
w 492 -491 -469 1
w 493 492 470 1
w 493 492 -470 1
w 493 -492 470 0
w 493 -492 -470 0
w 494 493 471 0
w 494 493 -471 1
w 494 -493 471 0
w 494 -493 -471 0
w 495 494 472 0
w 495 494 -472 0
w 495 -494 472 1
w 495 -494 -472 0
w 496 495 473 0
w 496 495 -473 0
w 496 -495 473 0
w 496 -495 -473 1
w 497 496 474 1
w 497 496 -474 0
w 497 -496 474 1
w 497 -496 -474 0
w 498 497 475 1
w 498 497 -475 0
w 498 -497 475 1
w 498 -497 -475 0
w 499 498 476 0.714608
w 499 498 -476 0.503915
w 499 -498 476 0.658032
w 499 -498 -476 0.314695
w 500 499 477 1
w 500 499 -477 0
w 500 -499 477 1
w 500 -499 -477 1
w 501 500 478 0.790086
w 501 500 -478 0.97838
w 501 -500 478 0.359026
w 501 -500 -478 0.0879521
w 502 501 479 1
w 502 501 -479 0
w 502 -501 479 0
w 502 -501 -479 1
w 503 502 480 1
w 503 502 -480 1
w 503 -502 480 0
w 503 -502 -480 1
w 504 503 481 0
w 504 503 -481 1
w 504 -503 481 1
w 504 -503 -481 0
w 505 504 482 1
w 505 504 -482 1
w 505 -504 482 0
w 505 -504 -482 1
w 506 505 483 0.682019
w 506 505 -483 0.700252
w 506 -505 483 0.780171
w 506 -505 -483 0.786601
w 507 484 0
w 507 -484 1
w 508 507 485 0.91549
w 508 507 -485 0.658209
w 508 -507 485 0.353929
w 508 -507 -485 0.749921
w 509 508 486 1
w 509 508 -486 0
w 509 -508 486 1
w 509 -508 -486 0
w 510 509 487 0
w 510 509 -487 1
w 510 -509 487 1
w 510 -509 -487 1
w 511 510 488 0.873611
w 511 510 -488 0.461535
w 511 -510 488 0.801678
w 511 -510 -488 0.889055
w 512 511 489 1
w 512 511 -489 0
w 512 -511 489 0
w 512 -511 -489 0
w 513 512 490 0.843163
w 513 512 -490 0.978839
w 513 -512 490 0.687813
w 513 -512 -490 0.399628
w 514 513 491 0
w 514 513 -491 0
w 514 -513 491 0
w 514 -513 -491 1
w 515 514 492 1
w 515 514 -492 0
w 515 -514 492 1
w 515 -514 -492 1
w 516 515 493 0
w 516 515 -493 1
w 516 -515 493 0
w 516 -515 -493 1
w 517 516 494 1
w 517 516 -494 0
w 517 -516 494 0
w 517 -516 -494 1
w 518 517 495 0.763983
w 518 517 -495 0.128528
w 518 -517 495 0.0429076
w 518 -517 -495 0.906894
w 519 518 496 1
w 519 518 -496 0
w 519 -518 496 0
w 519 -518 -496 0
w 520 519 497 1
w 520 519 -497 0
w 520 -519 497 1
w 520 -519 -497 1
w 521 520 498 0.529842
w 521 520 -498 0.297527
w 521 -520 498 0.431455
w 521 -520 -498 0.723164
w 522 521 499 0
w 522 521 -499 1
w 522 -521 499 1
w 522 -521 -499 1
w 523 522 500 0
w 523 522 -500 0
w 523 -522 500 0
w 523 -522 -500 1
w 524 523 501 0
w 524 523 -501 1
w 524 -523 501 0
w 524 -523 -501 1
w 525 524 502 0.0178864
w 525 524 -502 0.0991089
w 525 -524 502 0.11785
w 525 -524 -502 0.649819
w 526 525 503 1
w 526 525 -503 0
w 526 -525 503 0
w 526 -525 -503 1
w 527 526 504 1
w 527 526 -504 0
w 527 -526 504 0
w 527 -526 -504 1
w 528 527 505 1
w 528 527 -505 0
w 528 -527 505 1
w 528 -527 -505 0
w 529 528 506 1
w 529 528 -506 1
w 529 -528 506 1
w 529 -528 -506 0